t = 3; %number of attributes
k = 3; %maximum size of support set
n = 3; %number of positive instances
m = 3; %number of negative instances
c = 3; %number of atMostOne Constraints

omegap=[| 0,0,1|
1,0,1|
1,1,1
|];

omegan=[| 1,0,0|
0,1,0|
0,0,0
|];

atMostOne =
[{1},
{3},
{2,3}];